70
1 0 26
2 0 31
2 1 24
3 0 2
3 1 30
3 2 31
4 0 28
4 1 33
4 2 12
4 3 2
5 0 19
5 1 10
5 2 12
5 3 15
5 4 20
6 0 33
6 1 1
6 2 20
6 3 22
6 4 19
6 5 26
7 0 25
7 1 3
7 2 1
7 3 2
7 4 30
7 5 16
7 6 19
8 0 20
8 1 25
8 2 28
8 3 21
8 4 11
8 5 10
8 6 11
8 7 33
9 0 23
9 1 14
9 2 13
9 3 20
9 4 27
9 5 17
9 6 30
9 7 7
9 8 21
10 0 27
10 1 2
10 2 19
10 3 13
10 4 16
10 5 17
10 6 4
10 7 27
10 8 29
10 9 8
11 0 20
11 1 27
11 2 8
11 3 11
11 4 20
11 5 20
11 6 15
11 7 11
11 8 7
11 9 27
11 10 11
12 0 10
12 1 4
12 2 18
12 3 9
12 4 5
12 5 8
12 6 23
12 7 12
12 8 7
12 9 4
12 10 10
12 11 1
13 0 7
13 1 6
13 2 29
13 3 25
13 4 6
13 5 10
13 6 31
13 7 15
13 8 9
13 9 12
13 10 25
13 11 1
13 12 13
14 0 30
14 1 26
14 2 10
14 3 24
14 4 21
14 5 27
14 6 8
14 7 15
14 8 29
14 9 18
14 10 23
14 11 15
14 12 29
14 13 33
15 0 21
15 1 21
15 2 29
15 3 8
15 4 3
15 5 13
15 6 32
15 7 5
15 8 22
15 9 1
15 10 10
15 11 7
15 12 21
15 13 16
15 14 19
16 0 27
16 1 9
16 2 13
16 3 5
16 4 33
16 5 12
16 6 18
16 7 20
16 8 8
16 9 18
16 10 5
16 11 24
16 12 12
16 13 17
16 14 16
16 15 4
17 0 20
17 1 17
17 2 29
17 3 17
17 4 31
17 5 26
17 6 4
17 7 5
17 8 12
17 9 10
17 10 27
17 11 19
17 12 14
17 13 22
17 14 26
17 15 6
17 16 33
18 0 18
18 1 10
18 2 9
18 3 33
18 4 1
18 5 11
18 6 29
18 7 24
18 8 5
18 9 31
18 10 17
18 11 18
18 12 7
18 13 27
18 14 4
18 15 28
18 16 10
18 17 18
19 0 10
19 1 2
19 2 27
19 3 29
19 4 4
19 5 28
19 6 23
19 7 7
19 8 24
19 9 19
19 10 33
19 11 13
19 12 20
19 13 1
19 14 4
19 15 28
19 16 13
19 17 30
19 18 1
20 0 7
20 1 12
20 2 9
20 3 14
20 4 31
20 5 9
20 6 8
20 7 29
20 8 2
20 9 23
20 10 33
20 11 15
20 12 28
20 13 26
20 14 27
20 15 29
20 16 11
20 17 10
20 18 14
20 19 24
21 0 7
21 1 24
21 2 19
21 3 6
21 4 4
21 5 1
21 6 30
21 7 31
21 8 33
21 9 33
21 10 26
21 11 22
21 12 13
21 13 5
21 14 24
21 15 2
21 16 15
21 17 9
21 18 21
21 19 13
21 20 9
22 0 13
22 1 28
22 2 21
22 3 32
22 4 27
22 5 22
22 6 18
22 7 3
22 8 13
22 9 2
22 10 10
22 11 28
22 12 26
22 13 16
22 14 3
22 15 3
22 16 11
22 17 12
22 18 21
22 19 20
22 20 26
22 21 3
23 0 21
23 1 25
23 2 17
23 3 11
23 4 13
23 5 17
23 6 8
23 7 14
23 8 8
23 9 16
23 10 11
23 11 6
23 12 26
23 13 25
23 14 19
23 15 27
23 16 13
23 17 6
23 18 9
23 19 14
23 20 10
23 21 17
23 22 15
24 0 12
24 1 23
24 2 9
24 3 33
24 4 11
24 5 22
24 6 27
24 7 30
24 8 10
24 9 5
24 10 11
24 11 30
24 12 8
24 13 5
24 14 13
24 15 4
24 16 17
24 17 27
24 18 11
24 19 16
24 20 11
24 21 1
24 22 4
24 23 19
25 0 20
25 1 1
25 2 18
25 3 33
25 4 10
25 5 21
25 6 23
25 7 24
25 8 16
25 9 14
25 10 28
25 11 12
25 12 23
25 13 7
25 14 25
25 15 26
25 16 14
25 17 32
25 18 28
25 19 4
25 20 3
25 21 21
25 22 3
25 23 10
25 24 13
26 0 5
26 1 19
26 2 17
26 3 24
26 4 30
26 5 21
26 6 25
26 7 10
26 8 4
26 9 20
26 10 1
26 11 8
26 12 7
26 13 12
26 14 30
26 15 7
26 16 28
26 17 29
26 18 17
26 19 20
26 20 8
26 21 28
26 22 12
26 23 14
26 24 14
26 25 9
27 0 4
27 1 15
27 2 23
27 3 31
27 4 21
27 5 23
27 6 8
27 7 16
27 8 31
27 9 15
27 10 4
27 11 3
27 12 14
27 13 10
27 14 14
27 15 24
27 16 33
27 17 33
27 18 4
27 19 18
27 20 25
27 21 7
27 22 32
27 23 28
27 24 11
27 25 4
27 26 21
28 0 18
28 1 30
28 2 31
28 3 13
28 4 12
28 5 10
28 6 14
28 7 28
28 8 3
28 9 10
28 10 29
28 11 28
28 12 19
28 13 1
28 14 22
28 15 30
28 16 30
28 17 15
28 18 1
28 19 24
28 20 29
28 21 31
28 22 7
28 23 16
28 24 30
28 25 18
28 26 5
28 27 5
29 0 4
29 1 17
29 2 23
29 3 3
29 4 24
29 5 8
29 6 21
29 7 15
29 8 2
29 9 12
29 10 5
29 11 4
29 12 2
29 13 3
29 14 16
29 15 21
29 16 31
29 17 31
29 18 9
29 19 25
29 20 27
29 21 3
29 22 3
29 23 3
29 24 33
29 25 8
29 26 22
29 27 21
29 28 6
30 0 33
30 1 8
30 2 5
30 3 17
30 4 25
30 5 25
30 6 9
30 7 10
30 8 22
30 9 29
30 10 26
30 11 10
30 12 11
30 13 14
30 14 11
30 15 7
30 16 7
30 17 32
30 18 7
30 19 32
30 20 25
30 21 11
30 22 22
30 23 11
30 24 5
30 25 5
30 26 22
30 27 24
30 28 22
30 29 5
31 0 33
31 1 26
31 2 11
31 3 24
31 4 5
31 5 25
31 6 16
31 7 6
31 8 23
31 9 23
31 10 33
31 11 5
31 12 10
31 13 7
31 14 25
31 15 33
31 16 31
31 17 14
31 18 15
31 19 32
31 20 3
31 21 24
31 22 15
31 23 22
31 24 2
31 25 7
31 26 33
31 27 7
31 28 26
31 29 25
31 30 14
32 0 24
32 1 12
32 2 12
32 3 13
32 4 12
32 5 26
32 6 7
32 7 5
32 8 29
32 9 31
32 10 16
32 11 20
32 12 22
32 13 21
32 14 31
32 15 18
32 16 14
32 17 3
32 18 14
32 19 5
32 20 33
32 21 28
32 22 20
32 23 31
32 24 13
32 25 27
32 26 3
32 27 18
32 28 9
32 29 4
32 30 14
32 31 7
33 0 13
33 1 19
33 2 6
33 3 18
33 4 33
33 5 8
33 6 4
33 7 7
33 8 9
33 9 16
33 10 25
33 11 17
33 12 27
33 13 3
33 14 31
33 15 4
33 16 11
33 17 26
33 18 15
33 19 8
33 20 33
33 21 32
33 22 25
33 23 3
33 24 13
33 25 12
33 26 33
33 27 11
33 28 28
33 29 18
33 30 9
33 31 5
33 32 20
34 0 29
34 1 29
34 2 28
34 3 7
34 4 4
34 5 14
34 6 1
34 7 28
34 8 31
34 9 26
34 10 10
34 11 27
34 12 29
34 13 23
34 14 12
34 15 1
34 16 24
34 17 28
34 18 12
34 19 22
34 20 1
34 21 22
34 22 29
34 23 29
34 24 22
34 25 25
34 26 20
34 27 13
34 28 8
34 29 19
34 30 31
34 31 24
34 32 26
34 33 26
35 0 31
35 1 20
35 2 24
35 3 4
35 4 2
35 5 24
35 6 30
35 7 15
35 8 9
35 9 4
35 10 32
35 11 5
35 12 24
35 13 5
35 14 14
35 15 14
35 16 24
35 17 8
35 18 24
35 19 23
35 20 8
35 21 33
35 22 9
35 23 26
35 24 5
35 25 2
35 26 23
35 27 26
35 28 26
35 29 22
35 30 5
35 31 19
35 32 5
35 33 20
35 34 29
36 0 25
36 1 27
36 2 4
36 3 4
36 4 30
36 5 11
36 6 1
36 7 5
36 8 8
36 9 9
36 10 1
36 11 12
36 12 1
36 13 10
36 14 28
36 15 25
36 16 20
36 17 6
36 18 7
36 19 11
36 20 9
36 21 19
36 22 31
36 23 26
36 24 8
36 25 17
36 26 12
36 27 6
36 28 25
36 29 19
36 30 24
36 31 32
36 32 6
36 33 28
36 34 31
36 35 13
37 0 32
37 1 7
37 2 8
37 3 5
37 4 16
37 5 18
37 6 9
37 7 25
37 8 8
37 9 24
37 10 6
37 11 1
37 12 3
37 13 30
37 14 31
37 15 21
37 16 3
37 17 6
37 18 28
37 19 28
37 20 17
37 21 19
37 22 10
37 23 17
37 24 8
37 25 33
37 26 11
37 27 5
37 28 27
37 29 30
37 30 9
37 31 25
37 32 24
37 33 11
37 34 8
37 35 19
37 36 13
38 0 28
38 1 13
38 2 28
38 3 22
38 4 16
38 5 27
38 6 20
38 7 9
38 8 23
38 9 4
38 10 21
38 11 32
38 12 1
38 13 24
38 14 17
38 15 1
38 16 33
38 17 2
38 18 5
38 19 27
38 20 33
38 21 1
38 22 5
38 23 13
38 24 27
38 25 30
38 26 12
38 27 3
38 28 30
38 29 1
38 30 31
38 31 7
38 32 3
38 33 7
38 34 25
38 35 22
38 36 26
38 37 33
39 0 24
39 1 9
39 2 31
39 3 18
39 4 17
39 5 10
39 6 33
39 7 5
39 8 32
39 9 20
39 10 18
39 11 27
39 12 20
39 13 24
39 14 31
39 15 9
39 16 16
39 17 10
39 18 21
39 19 31
39 20 22
39 21 10
39 22 32
39 23 16
39 24 25
39 25 6
39 26 27
39 27 14
39 28 21
39 29 25
39 30 23
39 31 2
39 32 30
39 33 24
39 34 12
39 35 23
39 36 6
39 37 17
39 38 25
40 0 33
40 1 28
40 2 30
40 3 22
40 4 33
40 5 29
40 6 5
40 7 3
40 8 26
40 9 13
40 10 11
40 11 22
40 12 7
40 13 9
40 14 12
40 15 12
40 16 32
40 17 20
40 18 12
40 19 14
40 20 6
40 21 19
40 22 6
40 23 2
40 24 27
40 25 29
40 26 12
40 27 26
40 28 31
40 29 9
40 30 23
40 31 29
40 32 26
40 33 10
40 34 3
40 35 20
40 36 20
40 37 16
40 38 27
40 39 17
41 0 9
41 1 29
41 2 32
41 3 13
41 4 30
41 5 5
41 6 25
41 7 28
41 8 31
41 9 33
41 10 28
41 11 30
41 12 19
41 13 24
41 14 17
41 15 24
41 16 12
41 17 22
41 18 16
41 19 14
41 20 13
41 21 9
41 22 2
41 23 27
41 24 13
41 25 2
41 26 9
41 27 9
41 28 30
41 29 17
41 30 16
41 31 6
41 32 25
41 33 25
41 34 6
41 35 20
41 36 1
41 37 17
41 38 27
41 39 4
41 40 9
42 0 19
42 1 20
42 2 7
42 3 6
42 4 13
42 5 1
42 6 13
42 7 13
42 8 22
42 9 14
42 10 23
42 11 4
42 12 15
42 13 15
42 14 31
42 15 16
42 16 13
42 17 1
42 18 16
42 19 31
42 20 20
42 21 13
42 22 2
42 23 9
42 24 24
42 25 23
42 26 13
42 27 1
42 28 32
42 29 13
42 30 24
42 31 33
42 32 2
42 33 26
42 34 33
42 35 18
42 36 28
42 37 15
42 38 22
42 39 28
42 40 19
42 41 9
43 0 11
43 1 33
43 2 32
43 3 1
43 4 19
43 5 2
43 6 8
43 7 33
43 8 28
43 9 32
43 10 1
43 11 33
43 12 33
43 13 10
43 14 10
43 15 24
43 16 8
43 17 7
43 18 16
43 19 7
43 20 8
43 21 25
43 22 9
43 23 13
43 24 26
43 25 28
43 26 19
43 27 8
43 28 7
43 29 12
43 30 16
43 31 7
43 32 17
43 33 32
43 34 28
43 35 20
43 36 2
43 37 31
43 38 4
43 39 13
43 40 27
43 41 3
43 42 24
44 0 10
44 1 29
44 2 9
44 3 30
44 4 13
44 5 31
44 6 10
44 7 14
44 8 20
44 9 9
44 10 8
44 11 9
44 12 22
44 13 33
44 14 9
44 15 8
44 16 11
44 17 21
44 18 30
44 19 32
44 20 6
44 21 24
44 22 23
44 23 3
44 24 11
44 25 23
44 26 14
44 27 9
44 28 16
44 29 24
44 30 25
44 31 9
44 32 16
44 33 21
44 34 8
44 35 31
44 36 9
44 37 24
44 38 3
44 39 19
44 40 30
44 41 13
44 42 30
44 43 7
45 0 25
45 1 32
45 2 22
45 3 21
45 4 17
45 5 21
45 6 5
45 7 31
45 8 11
45 9 30
45 10 5
45 11 19
45 12 3
45 13 28
45 14 23
45 15 21
45 16 4
45 17 31
45 18 10
45 19 1
45 20 13
45 21 6
45 22 8
45 23 23
45 24 1
45 25 7
45 26 26
45 27 8
45 28 33
45 29 9
45 30 11
45 31 18
45 32 8
45 33 32
45 34 31
45 35 27
45 36 5
45 37 32
45 38 6
45 39 29
45 40 20
45 41 15
45 42 33
45 43 6
45 44 6
46 0 1
46 1 13
46 2 29
46 3 14
46 4 21
46 5 15
46 6 32
46 7 5
46 8 19
46 9 33
46 10 17
46 11 24
46 12 19
46 13 24
46 14 7
46 15 30
46 16 21
46 17 30
46 18 31
46 19 18
46 20 7
46 21 24
46 22 4
46 23 15
46 24 15
46 25 30
46 26 24
46 27 9
46 28 7
46 29 8
46 30 28
46 31 23
46 32 25
46 33 7
46 34 14
46 35 3
46 36 4
46 37 28
46 38 33
46 39 18
46 40 33
46 41 8
46 42 25
46 43 21
46 44 14
46 45 23
47 0 25
47 1 8
47 2 15
47 3 6
47 4 12
47 5 19
47 6 32
47 7 29
47 8 4
47 9 7
47 10 3
47 11 22
47 12 1
47 13 11
47 14 20
47 15 24
47 16 18
47 17 7
47 18 26
47 19 11
47 20 17
47 21 2
47 22 21
47 23 21
47 24 23
47 25 24
47 26 25
47 27 17
47 28 28
47 29 18
47 30 28
47 31 22
47 32 26
47 33 27
47 34 22
47 35 19
47 36 2
47 37 6
47 38 18
47 39 31
47 40 24
47 41 9
47 42 2
47 43 22
47 44 28
47 45 9
47 46 16
48 0 22
48 1 10
48 2 5
48 3 32
48 4 32
48 5 8
48 6 3
48 7 16
48 8 31
48 9 18
48 10 20
48 11 11
48 12 13
48 13 8
48 14 14
48 15 21
48 16 8
48 17 23
48 18 5
48 19 20
48 20 26
48 21 23
48 22 27
48 23 9
48 24 25
48 25 9
48 26 1
48 27 22
48 28 20
48 29 28
48 30 13
48 31 14
48 32 4
48 33 7
48 34 15
48 35 13
48 36 31
48 37 18
48 38 3
48 39 2
48 40 13
48 41 29
48 42 16
48 43 16
48 44 9
48 45 21
48 46 26
48 47 2
49 0 5
49 1 21
49 2 31
49 3 22
49 4 14
49 5 7
49 6 30
49 7 20
49 8 30
49 9 11
49 10 1
49 11 17
49 12 5
49 13 13
49 14 14
49 15 16
49 16 22
49 17 21
49 18 1
49 19 14
49 20 7
49 21 7
49 22 29
49 23 29
49 24 24
49 25 31
49 26 17
49 27 3
49 28 25
49 29 25
49 30 17
49 31 1
49 32 28
49 33 11
49 34 22
49 35 19
49 36 13
49 37 3
49 38 15
49 39 3
49 40 12
49 41 1
49 42 14
49 43 15
49 44 17
49 45 13
49 46 4
49 47 14
49 48 24
50 0 33
50 1 9
50 2 20
50 3 13
50 4 1
50 5 19
50 6 21
50 7 8
50 8 29
50 9 7
50 10 15
50 11 9
50 12 18
50 13 2
50 14 4
50 15 33
50 16 6
50 17 4
50 18 10
50 19 20
50 20 6
50 21 19
50 22 18
50 23 31
50 24 28
50 25 18
50 26 19
50 27 32
50 28 21
50 29 22
50 30 22
50 31 12
50 32 31
50 33 25
50 34 29
50 35 8
50 36 23
50 37 6
50 38 5
50 39 13
50 40 26
50 41 3
50 42 1
50 43 18
50 44 8
50 45 7
50 46 19
50 47 1
50 48 12
50 49 30
51 0 6
51 1 11
51 2 24
51 3 1
51 4 28
51 5 27
51 6 26
51 7 14
51 8 11
51 9 10
51 10 15
51 11 9
51 12 10
51 13 16
51 14 12
51 15 16
51 16 14
51 17 8
51 18 29
51 19 3
51 20 14
51 21 9
51 22 28
51 23 5
51 24 25
51 25 5
51 26 7
51 27 17
51 28 14
51 29 20
51 30 25
51 31 31
51 32 27
51 33 31
51 34 22
51 35 24
51 36 7
51 37 3
51 38 10
51 39 12
51 40 18
51 41 15
51 42 2
51 43 23
51 44 7
51 45 24
51 46 15
51 47 23
51 48 27
51 49 5
51 50 12
52 0 21
52 1 27
52 2 4
52 3 4
52 4 10
52 5 28
52 6 32
52 7 5
52 8 28
52 9 12
52 10 10
52 11 1
52 12 3
52 13 9
52 14 6
52 15 9
52 16 11
52 17 33
52 18 12
52 19 17
52 20 12
52 21 12
52 22 1
52 23 14
52 24 27
52 25 33
52 26 22
52 27 20
52 28 8
52 29 3
52 30 15
52 31 29
52 32 21
52 33 27
52 34 31
52 35 28
52 36 3
52 37 31
52 38 31
52 39 3
52 40 31
52 41 30
52 42 33
52 43 24
52 44 18
52 45 32
52 46 31
52 47 17
52 48 22
52 49 32
52 50 6
52 51 31
53 0 26
53 1 15
53 2 25
53 3 11
53 4 3
53 5 2
53 6 19
53 7 22
53 8 4
53 9 20
53 10 33
53 11 9
53 12 29
53 13 11
53 14 33
53 15 10
53 16 2
53 17 3
53 18 9
53 19 11
53 20 29
53 21 12
53 22 14
53 23 4
53 24 19
53 25 26
53 26 20
53 27 31
53 28 13
53 29 3
53 30 19
53 31 28
53 32 26
53 33 27
53 34 4
53 35 15
53 36 4
53 37 21
53 38 29
53 39 25
53 40 3
53 41 6
53 42 15
53 43 16
53 44 22
53 45 18
53 46 9
53 47 27
53 48 11
53 49 29
53 50 10
53 51 21
53 52 21
54 0 29
54 1 25
54 2 15
54 3 25
54 4 1
54 5 24
54 6 21
54 7 13
54 8 25
54 9 23
54 10 1
54 11 30
54 12 32
54 13 27
54 14 10
54 15 7
54 16 26
54 17 20
54 18 14
54 19 3
54 20 7
54 21 27
54 22 22
54 23 14
54 24 33
54 25 4
54 26 1
54 27 8
54 28 9
54 29 24
54 30 3
54 31 24
54 32 16
54 33 5
54 34 27
54 35 27
54 36 19
54 37 16
54 38 16
54 39 13
54 40 24
54 41 6
54 42 33
54 43 18
54 44 32
54 45 10
54 46 11
54 47 27
54 48 18
54 49 3
54 50 19
54 51 31
54 52 18
54 53 1
55 0 3
55 1 3
55 2 22
55 3 23
55 4 19
55 5 22
55 6 29
55 7 14
55 8 9
55 9 18
55 10 5
55 11 5
55 12 9
55 13 33
55 14 26
55 15 5
55 16 32
55 17 16
55 18 5
55 19 28
55 20 32
55 21 18
55 22 13
55 23 12
55 24 32
55 25 8
55 26 24
55 27 11
55 28 21
55 29 22
55 30 18
55 31 16
55 32 7
55 33 26
55 34 29
55 35 19
55 36 13
55 37 26
55 38 25
55 39 23
55 40 5
55 41 33
55 42 22
55 43 12
55 44 28
55 45 17
55 46 21
55 47 27
55 48 11
55 49 23
55 50 22
55 51 5
55 52 27
55 53 23
55 54 13
56 0 18
56 1 19
56 2 31
56 3 8
56 4 21
56 5 17
56 6 4
56 7 7
56 8 15
56 9 26
56 10 7
56 11 18
56 12 6
56 13 24
56 14 14
56 15 22
56 16 1
56 17 9
56 18 2
56 19 31
56 20 32
56 21 18
56 22 10
56 23 20
56 24 23
56 25 17
56 26 13
56 27 10
56 28 22
56 29 10
56 30 10
56 31 24
56 32 29
56 33 17
56 34 7
56 35 30
56 36 3
56 37 19
56 38 21
56 39 6
56 40 26
56 41 26
56 42 12
56 43 32
56 44 14
56 45 31
56 46 21
56 47 28
56 48 17
56 49 22
56 50 10
56 51 26
56 52 4
56 53 14
56 54 13
56 55 29
57 0 27
57 1 10
57 2 30
57 3 23
57 4 24
57 5 27
57 6 21
57 7 24
57 8 5
57 9 10
57 10 24
57 11 19
57 12 6
57 13 27
57 14 12
57 15 21
57 16 10
57 17 17
57 18 28
57 19 32
57 20 5
57 21 27
57 22 12
57 23 10
57 24 13
57 25 30
57 26 10
57 27 1
57 28 21
57 29 19
57 30 14
57 31 9
57 32 17
57 33 10
57 34 3
57 35 31
57 36 27
57 37 22
57 38 17
57 39 17
57 40 23
57 41 13
57 42 32
57 43 3
57 44 6
57 45 25
57 46 29
57 47 16
57 48 15
57 49 21
57 50 20
57 51 32
57 52 23
57 53 14
57 54 26
57 55 22
57 56 20
58 0 6
58 1 11
58 2 21
58 3 15
58 4 8
58 5 10
58 6 10
58 7 29
58 8 30
58 9 26
58 10 23
58 11 10
58 12 1
58 13 30
58 14 26
58 15 23
58 16 13
58 17 28
58 18 15
58 19 26
58 20 17
58 21 23
58 22 13
58 23 22
58 24 3
58 25 8
58 26 32
58 27 16
58 28 8
58 29 29
58 30 11
58 31 10
58 32 10
58 33 27
58 34 19
58 35 7
58 36 24
58 37 22
58 38 6
58 39 13
58 40 15
58 41 13
58 42 11
58 43 24
58 44 29
58 45 11
58 46 2
58 47 30
58 48 3
58 49 6
58 50 24
58 51 22
58 52 29
58 53 31
58 54 23
58 55 4
58 56 9
58 57 26
59 0 19
59 1 14
59 2 4
59 3 4
59 4 11
59 5 13
59 6 24
59 7 28
59 8 1
59 9 21
59 10 16
59 11 11
59 12 30
59 13 16
59 14 4
59 15 11
59 16 23
59 17 18
59 18 6
59 19 14
59 20 18
59 21 2
59 22 12
59 23 7
59 24 3
59 25 28
59 26 10
59 27 21
59 28 15
59 29 1
59 30 33
59 31 1
59 32 33
59 33 18
59 34 10
59 35 26
59 36 21
59 37 3
59 38 20
59 39 27
59 40 8
59 41 9
59 42 9
59 43 33
59 44 8
59 45 29
59 46 4
59 47 24
59 48 14
59 49 17
59 50 26
59 51 19
59 52 8
59 53 13
59 54 12
59 55 9
59 56 31
59 57 15
59 58 31
60 0 14
60 1 22
60 2 12
60 3 18
60 4 7
60 5 6
60 6 18
60 7 18
60 8 21
60 9 28
60 10 13
60 11 25
60 12 24
60 13 23
60 14 30
60 15 30
60 16 21
60 17 25
60 18 10
60 19 18
60 20 24
60 21 25
60 22 12
60 23 19
60 24 10
60 25 2
60 26 11
60 27 14
60 28 4
60 29 29
60 30 2
60 31 21
60 32 33
60 33 33
60 34 9
60 35 22
60 36 13
60 37 26
60 38 7
60 39 3
60 40 14
60 41 17
60 42 22
60 43 27
60 44 1
60 45 3
60 46 3
60 47 18
60 48 1
60 49 29
60 50 1
60 51 18
60 52 7
60 53 23
60 54 4
60 55 14
60 56 30
60 57 21
60 58 28
60 59 5
61 0 20
61 1 23
61 2 11
61 3 4
61 4 24
61 5 4
61 6 21
61 7 20
61 8 4
61 9 4
61 10 2
61 11 22
61 12 11
61 13 1
61 14 5
61 15 5
61 16 29
61 17 13
61 18 24
61 19 20
61 20 15
61 21 30
61 22 8
61 23 9
61 24 9
61 25 32
61 26 28
61 27 7
61 28 30
61 29 20
61 30 1
61 31 15
61 32 5
61 33 14
61 34 18
61 35 25
61 36 2
61 37 17
61 38 22
61 39 7
61 40 28
61 41 13
61 42 27
61 43 20
61 44 21
61 45 22
61 46 15
61 47 31
61 48 27
61 49 25
61 50 17
61 51 28
61 52 1
61 53 2
61 54 24
61 55 32
61 56 24
61 57 6
61 58 3
61 59 29
61 60 22
62 0 15
62 1 23
62 2 18
62 3 9
62 4 17
62 5 33
62 6 30
62 7 5
62 8 19
62 9 11
62 10 29
62 11 21
62 12 17
62 13 30
62 14 26
62 15 5
62 16 22
62 17 7
62 18 6
62 19 9
62 20 25
62 21 18
62 22 11
62 23 9
62 24 14
62 25 10
62 26 33
62 27 20
62 28 22
62 29 12
62 30 19
62 31 29
62 32 21
62 33 28
62 34 33
62 35 7
62 36 19
62 37 24
62 38 21
62 39 13
62 40 24
62 41 31
62 42 20
62 43 16
62 44 9
62 45 4
62 46 25
62 47 26
62 48 7
62 49 14
62 50 27
62 51 2
62 52 8
62 53 30
62 54 16
62 55 26
62 56 6
62 57 14
62 58 25
62 59 26
62 60 20
62 61 26
63 0 14
63 1 2
63 2 18
63 3 8
63 4 27
63 5 8
63 6 24
63 7 29
63 8 33
63 9 29
63 10 9
63 11 24
63 12 3
63 13 31
63 14 10
63 15 1
63 16 20
63 17 3
63 18 15
63 19 6
63 20 20
63 21 31
63 22 15
63 23 2
63 24 6
63 25 21
63 26 14
63 27 22
63 28 31
63 29 15
63 30 4
63 31 16
63 32 29
63 33 5
63 34 22
63 35 28
63 36 12
63 37 16
63 38 12
63 39 13
63 40 30
63 41 33
63 42 21
63 43 9
63 44 22
63 45 23
63 46 5
63 47 16
63 48 8
63 49 25
63 50 20
63 51 2
63 52 10
63 53 7
63 54 1
63 55 13
63 56 25
63 57 30
63 58 10
63 59 9
63 60 10
63 61 21
63 62 6
64 0 8
64 1 14
64 2 32
64 3 14
64 4 16
64 5 16
64 6 9
64 7 12
64 8 12
64 9 11
64 10 32
64 11 8
64 12 2
64 13 12
64 14 1
64 15 10
64 16 9
64 17 5
64 18 5
64 19 32
64 20 23
64 21 20
64 22 2
64 23 3
64 24 30
64 25 30
64 26 8
64 27 1
64 28 22
64 29 30
64 30 25
64 31 25
64 32 33
64 33 30
64 34 27
64 35 13
64 36 10
64 37 15
64 38 20
64 39 33
64 40 24
64 41 3
64 42 10
64 43 19
64 44 5
64 45 31
64 46 14
64 47 5
64 48 20
64 49 22
64 50 30
64 51 27
64 52 13
64 53 6
64 54 10
64 55 4
64 56 19
64 57 30
64 58 15
64 59 31
64 60 2
64 61 33
64 62 7
64 63 25
65 0 9
65 1 11
65 2 1
65 3 7
65 4 10
65 5 4
65 6 30
65 7 4
65 8 21
65 9 3
65 10 13
65 11 10
65 12 15
65 13 33
65 14 32
65 15 5
65 16 18
65 17 28
65 18 12
65 19 21
65 20 16
65 21 25
65 22 26
65 23 7
65 24 32
65 25 19
65 26 30
65 27 14
65 28 28
65 29 7
65 30 24
65 31 3
65 32 30
65 33 2
65 34 12
65 35 23
65 36 28
65 37 28
65 38 13
65 39 33
65 40 6
65 41 10
65 42 1
65 43 4
65 44 18
65 45 28
65 46 1
65 47 23
65 48 24
65 49 18
65 50 5
65 51 3
65 52 1
65 53 3
65 54 32
65 55 29
65 56 23
65 57 9
65 58 7
65 59 3
65 60 9
65 61 13
65 62 3
65 63 24
65 64 13
66 0 25
66 1 23
66 2 25
66 3 9
66 4 20
66 5 20
66 6 16
66 7 25
66 8 25
66 9 32
66 10 33
66 11 32
66 12 23
66 13 23
66 14 10
66 15 24
66 16 15
66 17 23
66 18 30
66 19 8
66 20 2
66 21 14
66 22 11
66 23 4
66 24 30
66 25 21
66 26 24
66 27 29
66 28 27
66 29 21
66 30 24
66 31 17
66 32 14
66 33 14
66 34 18
66 35 12
66 36 29
66 37 2
66 38 33
66 39 22
66 40 17
66 41 13
66 42 2
66 43 28
66 44 18
66 45 11
66 46 18
66 47 20
66 48 6
66 49 28
66 50 4
66 51 3
66 52 22
66 53 13
66 54 8
66 55 21
66 56 2
66 57 20
66 58 12
66 59 1
66 60 1
66 61 22
66 62 5
66 63 28
66 64 14
66 65 4
67 0 16
67 1 28
67 2 30
67 3 20
67 4 19
67 5 21
67 6 31
67 7 15
67 8 24
67 9 17
67 10 13
67 11 3
67 12 4
67 13 20
67 14 6
67 15 8
67 16 33
67 17 25
67 18 33
67 19 10
67 20 31
67 21 13
67 22 33
67 23 15
67 24 7
67 25 19
67 26 4
67 27 3
67 28 10
67 29 10
67 30 19
67 31 32
67 32 5
67 33 1
67 34 16
67 35 3
67 36 29
67 37 12
67 38 13
67 39 28
67 40 19
67 41 29
67 42 3
67 43 18
67 44 27
67 45 14
67 46 27
67 47 31
67 48 2
67 49 8
67 50 15
67 51 10
67 52 16
67 53 26
67 54 20
67 55 23
67 56 28
67 57 5
67 58 16
67 59 30
67 60 19
67 61 20
67 62 5
67 63 9
67 64 16
67 65 7
67 66 7
68 0 30
68 1 8
68 2 33
68 3 19
68 4 13
68 5 19
68 6 1
68 7 14
68 8 2
68 9 23
68 10 33
68 11 15
68 12 33
68 13 3
68 14 28
68 15 16
68 16 27
68 17 18
68 18 31
68 19 17
68 20 22
68 21 3
68 22 32
68 23 5
68 24 26
68 25 20
68 26 31
68 27 28
68 28 4
68 29 25
68 30 11
68 31 12
68 32 12
68 33 24
68 34 26
68 35 12
68 36 13
68 37 33
68 38 26
68 39 8
68 40 13
68 41 32
68 42 28
68 43 16
68 44 28
68 45 11
68 46 23
68 47 30
68 48 1
68 49 16
68 50 8
68 51 3
68 52 3
68 53 5
68 54 4
68 55 16
68 56 18
68 57 7
68 58 11
68 59 29
68 60 27
68 61 19
68 62 13
68 63 31
68 64 14
68 65 4
68 66 16
68 67 28
69 0 11
69 1 16
69 2 8
69 3 12
69 4 11
69 5 2
69 6 23
69 7 8
69 8 33
69 9 9
69 10 11
69 11 26
69 12 16
69 13 16
69 14 31
69 15 18
69 16 19
69 17 19
69 18 8
69 19 15
69 20 23
69 21 16
69 22 12
69 23 2
69 24 14
69 25 29
69 26 1
69 27 26
69 28 1
69 29 30
69 30 30
69 31 18
69 32 10
69 33 2
69 34 8
69 35 21
69 36 1
69 37 24
69 38 33
69 39 6
69 40 15
69 41 29
69 42 6
69 43 16
69 44 16
69 45 15
69 46 21
69 47 27
69 48 5
69 49 13
69 50 1
69 51 22
69 52 33
69 53 26
69 54 17
69 55 24
69 56 8
69 57 3
69 58 4
69 59 19
69 60 27
69 61 14
69 62 18
69 63 6
69 64 20
69 65 4
69 66 30
69 67 2
69 68 22
